0001 1
0002 2
0003 3
0004 1
0005 2
0006 1
0007 4
0008 1
0009 5
0010 4
0011 6
0012 7
0013 2
0014 3
0015 8
0016 6
0017 4
0018 1
0019 2
0020 3
0021 6
0022 8
0023 9
0024 5
0025 1
0026 1
0027 3
0028 2
0029 10
0030 1
0031 7
0032 6
0033 2
0034 4
0035 1
0036 3
0037 10
0038 5
0039 2
0040 1
0041 3
0042 1
0043 6
0044 5
0045 6
0046 1
0047 4
0048 5
0049 2
0050 1
0051 5
0052 1
0053 9
0054 6
0055 3
0056 7
0057 1
0058 2
0059 4
0060 12
0061 13
0062 13
0063 12
0064 1
0065 6
0066 8
0067 13
0068 9
0069 4
0070 3
0071 3
0072 7
0073 5
0074 7
0075 2
0076 8
0077 4
0078 10
0079 3
0080 6
0081 9
0082 7
0083 4
0084 1
0085 2
0086 6
0087 1
0088 1
0089 3
0090 5
0091 10
0092 6
0093 7
0094 6
0095 3
0096 10
0097 9
0098 14
0099 11
0100 11
0101 1
0102 15
0103 5
0104 9
0105 14
0106 16
0107 3
0108 2
0109 1
0110 3
0111 17
0112 8
0113 11
0114 1
0115 2
0116 12
0117 7
0118 10
0119 13
0120 1
0121 12
0122 14
0123 18
0124 19
0125 9
0126 10
0127 3
0128 4
0129 1
0130 19
0131 12
0132 15
0133 16
0134 18
0135 1
0136 5
0137 3
0138 4
0139 8
0140 20
0141 6
0142 2
0143 1
0144 16
0145 15
0146 3
0147 10
0148 12
0149 6
0150 1
0151 7
0152 9
0153 2
0154 4
0155 11
0156 14
0157 10
0158 19
0159 16
0160 17
0161 1
0162 4
0163 6
0164 7
0165 5
0166 2
0167 13
0168 1
0169 21
0170 3
0171 8
0172 15
0173 14
0174 10
0175 2
0176 4
0177 4
0178 9
0179 1
0180 7
0181 15
0182 18
0183 23
0184 24
0185 22
0186 4
0187 16
0188 4
0189 2
0190 12
0191 7
0192 1
0193 15
0194 17
0195 19
0196 20
0197 16
0198 17
0199 1
0200 22
0201 7
0202 25
0203 14
0204 26
0205 12
0206 24
0207 5
0208 4
0209 10
0210 3
0211 16
0212 4
0213 2
0214 1
0215 14
0216 6
0217 5
0218 4
0219 27
0220 21
0221 18
0222 3
0223 2
0224 1
0225 4
0226 1
0227 2
0228 1
0229 3
0230 5
0231 3
0232 1
0233 1
0234 2
0235 1
0236 5
0237 4
0238 26
0239 29
0240 26
0241 24
0242 17
0243 28
0244 27
0245 7
0246 5
0247 23
0248 13
0249 30
0250 6
0251 4
0252 19
0253 17
0254 6
0255 22
0256 8
0257 2
0258 4
0259 21
0260 9
0261 15
0262 3
0263 13
0264 21
0265 1
0266 4
0267 3
0268 2
0269 1
0270 5
0271 12
0272 10
0273 20
0274 3
0275 6
0276 11
0277 7
0278 2
0279 18
0280 20
0281 6
0282 4
0283 5
0284 4
0285 7
0286 17
0287 7
0288 1
0289 19
0290 14
0291 6
0292 1
0293 1
0294 2
0295 10
0296 5
0297 30
0298 1
0299 19
0300 4
0301 5
0302 22
0303 21
0304 6
0305 1
0306 28
0307 2
0308 5
0309 1
0310 5
0311 1
0312 29
0313 10
0314 3
0315 6
0316 12
0317 3
0318 2
0319 9
0320 8
0321 2
0322 6
0323 4
0324 3
0325 15
0326 9
0327 6
0328 3
0329 1
0330 1
0331 17
0332 11
0333 21
0334 1
0335 1
0336 11
0337 2
0338 6
0339 17
0340 8
0341 7
0342 3
0343 2
0344 1
0345 5
0346 6
0347 33
0348 13
0349 6
0350 9
0351 29
0352 31
0353 31
0354 26
0355 32
0356 20
0357 6
0358 22
0359 25
0360 21
0361 17
0362 23
0363 12
0364 15
0365 10
0366 16
0367 5
0368 2
0369 18
0370 1
0371 2
0372 18
0373 2
0374 23
0375 10
0376 2
0377 5
0378 6
0379 1
0380 7
0381 5
0382 11
0383 35
0384 28
0385 28
0386 13
0387 31
0388 6
0389 7
0390 9
0391 17
0392 5
0393 2
0394 24
0395 3
0396 22
0397 21
0398 16
0399 25
0400 6
0401 8
0402 30
0403 19
0404 2
0405 3
0406 7
0407 11
0408 1
0409 9
0410 16
0411 6
0412 10
0413 4
0414 2
0415 1
0416 1
0417 9
0418 2
0419 4
0420 30
0421 3
0422 1
0423 7
0424 10
0425 13
0426 17
0427 3
0428 1
0429 10
0430 8
0431 4
0432 25
0433 5
0434 19
0435 12
0436 24
0437 2
0438 13
0439 37
0440 25
0441 25
0442 6
0443 11
0444 7
0445 15
0446 14
0447 37
0448 23
0449 34
0450 30
0451 17
0452 21
0453 11
0454 12
0455 33
0456 5
0457 8
0458 15
0459 1
0460 4
0461 24
0462 3
0463 16
0464 36
0465 39
0466 22
0467 18
0468 8
0469 1
0470 5
0471 3
0472 7
0473 4
0474 8
0475 9
0476 1
0477 7
0478 3
0479 4
0480 1
0481 7
0482 34
0483 13
0484 32
0485 36
0486 25
0487 10
0488 12
0489 16
0490 9
0491 8
0492 5
0493 14
0494 6
0495 1
0496 19
0497 22
0498 28
0499 3
0500 15
0501 6
0502 11
0503 4
0504 5
0505 5
0506 9
0507 7
0508 4
0509 20
0510 40
0511 20
0512 1
0513 38
0514 38
0515 16
0516 22
0517 32
0518 21
0519 18
0520 2
0521 28
0522 41
0523 8
0524 26
0525 7
0526 1
0527 2
0528 18
0529 3
0530 5
0531 8
0532 4
0533 4
0534 1
0535 36
0536 9
0537 4
0538 4
0539 2
0540 1
0541 3
0542 8
0543 11
0544 1
0545 17
0546 3
0547 2
0548 2
0549 1
0550 2
0551 2
0552 5
0553 3
0554 1
0555 9
0556 3
0557 1
0558 2
0559 1
0560 2
0561 2
0562 1
0563 3
0564 1
0565 2
0566 4
0567 5
0568 6
0569 3
0570 1
0571 1
0572 18
0573 5
0574 43
0575 12
0576 15
0577 1
0578 39
0579 9
0580 2
0581 41
0582 22
0583 1
0584 2
0585 3
0586 24
0587 19
0588 42
0589 35
0590 23
0591 13
0592 3
0593 6
0594 10
0595 26
0596 1
0597 20
0598 27
0599 27
0600 1
0601 14
0602 32
0603 2
0604 2
0605 1
0606 33
0607 23
0608 27
0609 35
0610 15
0611 44
0612 17
0613 11
0614 29
0615 18
0616 4
0617 20
0618 8
0619 3
0620 2
0621 1
0622 1
